(set-logic QF_S)
(declare-fun var0 () String)
(assert (str.in.re var0 (re.++ (re.union (re.* (str.to.re "000")) (re.* (str.to.re "11"))) (re.* (re.+ (str.to.re "22"))))))
(assert (<= 15 (str.len var0)))
(check-sat)